948129
948129
916315
916315
916315
916315
916315
913007
913007
898398
898398
897219
891053
884767
884767
878606
878606
860137
860137
859764
859764
859764
849251
843822
843822
835069
835069
835069
835069
831924
830967
830967
830967
829132
825224
824801
824801
814402
814402
814402
814402
814402
802992
802992
802992
802992
799548
799548
788742
788742
788742
788742
788742
788742
788742
788742
788742
786449
786449
780597
780597
772268
771897
771897
763946
763117
763117
763117
745590
745590
745590
733956
733956
733956
733956
733956
733956
733956
733956
733956
733956
733956
733956
727359
727359
727359
720600
720600
720026
720026
720026
717746
709434
709434
709434
709434
709434
709434
705967
705967
